Maximize
  obj: 0y1 + y2 + 0y3
Subject To
 C0: y2 + 0.020008y1 <= 500.000000
 C1: y2 + 0.060120y1 <= 500.802248
 C2: y2 + 0.100524y1 <= 502.418404
 C3: y2 + 0.141422y1 <= 504.872262
 C4: y2 + 0.183028y1 <= 508.200742
 C5: y2 + 0.225575y1 <= 512.455471
 C6: y2 + 0.269322y1 <= 517.705108
 C7: y2 + 0.314561y1 <= 524.038601
 C8: y2 + 0.361631y1 <= 531.569729
 C9: y2 + 0.410929y1 <= 540.443390
 C10: y2 + 0.462934y1 <= 550.844400
 C11: y2 + 0.518232y1 <= 563.009953
 C12: y2 + 0.577556y1 <= 577.247611
 C13: y2 + 0.641841y1 <= 593.961875
 C14: y2 + 0.712315y1 <= 613.694553
 C15: y2 + 0.790627y1 <= 637.188186
 C16: y2 + 0.879070y1 <= 665.489833
 C17: y2 + 0.980951y1 <= 700.129466
 C18: y2 + 1.101275y1 <= 743.445946
 C19: y2 + 1.248077y1 <= 799.230724
 C20: y2 + 1.435340y1 <= 874.136013
 C21: y2 + 1.690318y1 <= 981.226709
 C22: y2 + 2.076383y1 <= 1151.095413
 C23: y2 + 2.797959y1 <= 1483.020306
 C24: y2 + 7.000000y1 <= 3500.000000
 C25: y1 - .1y3 <= .025
 C26: -y1 + .1y3 <= .025
 C27: -y1 <= 0
 C28: -y2 <= 0
General
 y3
End
